g3 0 1 0	# problem 3358
 158 172 1 0 145	# vars, constraints, objectives, ranges, eqns
 106 0	# nonlinear constraints, objectives
 0 0	# network constraints: nonlinear, linear
 68 0 0	# nonlinear vars in constraints, objectives, both
 0 0 0 1	# linear network variables; functions; arith, flags
 0 0 0 0 0	# discrete variables: binary, integer, nonlinear (b,c,o)
 617 1	# nonzeros in Jacobian, gradients
 0 0	# max name lengths: constraints, variables
 0 0 0 0 0	# common exprs: b,c,o,c1,o1
b
0 0 8.94427191
0 0 8.94427191
0 0 8.94427191
0 0 8.94427191
0 0 8.94427191
0 0 8.94427191
0 0 8.94427191
0 0 8.94427191
0 0 8.94427191
0 0 8.94427191
0 0 8.94427191
0 0 8.94427191
0 -8.94427191 8.94427191
0 -8.94427191 8.94427191
0 -8.94427191 8.94427191
0 -8.94427191 8.94427191
0 -8.94427191 8.94427191
0 -8.94427191 8.94427191
0 -8.94427191 8.94427191
0 -8.94427191 8.94427191
0 -8.94427191 8.94427191
0 -8.94427191 8.94427191
0 -8.94427191 8.94427191
0 -8.94427191 8.94427191
0 0 8.94427191
0 0 8.94427191
0 0 8.94427191
0 0 8.94427191
0 0 8.94427191
0 0 8.94427191
0 0 8.94427191
0 0 8.94427191
0 0 8.94427191
0 0 8.94427191
0 0 8.94427191
0 0 8.94427191
0 -8.94427191 8.94427191
0 -8.94427191 8.94427191
0 -8.94427191 8.94427191
0 -8.94427191 8.94427191
0 -8.94427191 8.94427191
0 -8.94427191 8.94427191
0 -8.94427191 8.94427191
0 -8.94427191 8.94427191
0 -8.94427191 8.94427191
0 -8.94427191 8.94427191
0 -8.94427191 8.94427191
0 -8.94427191 8.94427191
0 -8.94427191 8.94427191
0 -8.94427191 8.94427191
0 0 8
0 0 4
0 -1 1
0 -1 1
0 -1 1
0 -1 1
0 -1 1
0 -1 1
0 -1 1
0 -1 1
0 -1 1
0 -1 1
0 -1 1
0 -1 1
0 -1 1
0 -1 1
0 -1 1
0 -1 1
0 0 32
0 0 8
0 -8.94427191 8.94427191
0 0 4
0 -8.94427191 8.94427191
0 -8.94427191 8.94427191
0 -8.94427191 8.94427191
0 -8.94427191 8.94427191
0 -8.94427191 8.94427191
0 -8.94427191 8.94427191
0 -8.94427191 8.94427191
0 -8.94427191 8.94427191
0 -8.94427191 8.94427191
0 -8.94427191 8.94427191
0 -8.94427191 8.94427191
0 -8.94427191 8.94427191
0 -8.94427191 8.94427191
0 -8.94427191 8.94427191
0 -8.94427191 8.94427191
0 -8.94427191 8.94427191
0 -8.94427191 8.94427191
0 -8.94427191 8.94427191
0 -8.94427191 8.94427191
0 -8.94427191 8.94427191
0 -8.94427191 8.94427191
0 -8.94427191 8.94427191
0 -8.94427191 8.94427191
0 0 8
0 -8.94427191 8.94427191
0 0 4
0 -8.94427191 8.94427191
0 -8.94427191 8.94427191
0 -8.94427191 8.94427191
0 -8.94427191 8.94427191
0 -8.94427191 8.94427191
0 -8.94427191 8.94427191
0 -8.94427191 8.94427191
0 -8.94427191 8.94427191
0 -8.94427191 8.94427191
0 -8.94427191 8.94427191
0 -8.94427191 8.94427191
0 0 8
0 -8.94427191 8.94427191
0 0 4
0 -8.94427191 8.94427191
0 -8.94427191 8.94427191
0 -8.94427191 8.94427191
0 -8.94427191 8.94427191
0 -8.94427191 8.94427191
0 -8.94427191 8.94427191
0 -8.94427191 8.94427191
0 -8.94427191 8.94427191
0 -8.94427191 8.94427191
0 -8.94427191 8.94427191
0 -8.94427191 8.94427191
0 1.44 32
0 1.2 4
0 1.2 2
0 0 8
0 0 8
0 0 8
0 0 8
0 0 8
0 0 8
0 0 8
0 0 4
0 0 4
0 0 4
0 0 4
0 0 4
0 0 4
0 0 4
0 0 8
0 0 8
0 0 8
0 0 8
0 0 8
0 0 8
0 0 8
0 0 4
0 0 4
0 0 4
0 0 4
0 0 4
0 0 4
0 0 4
0 -8.94427191 8.94427191
0 -8.94427191 8.94427191
0 -8.94427191 8.94427191
0 -8.94427191 8.94427191
x3
123 1.44
124 1.2
125 1.2
r
4 0
4 0
4 0
4 0
4 0
4 0
4 0
4 0
4 0
4 0
4 0
4 0
4 0
4 0
4 0
4 0
4 0
4 0
4 0
4 0
4 0
4 0
4 0
4 0
4 0
4 0
4 0
4 0
4 0
4 0
4 0
4 0
4 0
4 0
4 0
4 0
4 0
4 0
4 0
4 0
4 0
4 0
4 0
4 0
4 0
4 0
4 0
4 0
4 0
4 0
4 0
4 0
4 0
4 0
4 0
4 0
4 0
4 0
4 0
4 0
4 0
4 0
4 0
4 0
4 0
4 0
4 0
4 0
4 0
4 0
4 0
4 0
4 0
4 0
4 0
4 0
4 0
4 0
4 0
4 0
4 0
4 0
4 0
4 0
4 0
4 0
4 0
4 0
4 0
4 0
4 0
4 0
4 0
4 0
4 0
4 0
4 0
4 0
4 0
4 0
4 0
4 1
4 1
4 1
4 1
4 1
4 -8.523893421
1 -1.2
1 -1.2
4 0
4 0
4 0
4 0
1 0
1 0
1 0
1 0
1 0
1 0
1 0
1 0
1 0
1 0
1 0
1 0
1 0
1 0
1 0
1 0
1 0
1 0
1 0
1 0
1 0
1 0
1 0
1 0
4 0
4 0
4 0
4 0
4 0
4 0
4 0
4 0
4 0
4 0
4 0
4 0
4 0
4 0
4 0
4 0
4 0
4 0
4 0
4 0
4 0
4 0
4 0
4 0
4 0
4 0
4 0
4 0
4 0
4 0
4 0
4 0
4 0
4 0
1 0
C0
o16
o2
v51
v50
C1
o2
v58
v12
C2
o2
v56
v12
C3
o2
v58
v13
C4
o2
v56
v13
C5
o2
v58
v14
C6
o2
v56
v14
C7
o2
v58
v15
C8
o2
v56
v15
C9
o2
v58
v16
C10
o2
v56
v16
C11
o2
v58
v17
C12
o2
v56
v17
C13
o2
v58
v18
C14
o2
v56
v18
C15
o2
v58
v19
C16
o2
v56
v19
C17
o2
v58
v20
C18
o2
v56
v20
C19
o2
v58
v21
C20
o2
v56
v21
C21
o2
v58
v22
C22
o2
v56
v22
C23
o2
v58
v23
C24
o2
v56
v23
C25
o16
o2
v57
v0
C26
o16
o2
v59
v0
C27
o16
o2
v57
v1
C28
o16
o2
v59
v1
C29
o16
o2
v57
v2
C30
o16
o2
v59
v2
C31
o16
o2
v57
v3
C32
o16
o2
v59
v3
C33
o16
o2
v57
v4
C34
o16
o2
v59
v4
C35
o16
o2
v57
v5
C36
o16
o2
v59
v5
C37
o2
v57
v6
C38
o2
v59
v6
C39
o2
v57
v7
C40
o2
v59
v7
C41
o2
v57
v8
C42
o2
v59
v8
C43
o2
v57
v9
C44
o2
v59
v9
C45
o2
v57
v10
C46
o2
v59
v10
C47
o2
v57
v11
C48
o2
v59
v11
C49
o2
v64
v36
C50
o2
v60
v36
C51
o2
v64
v37
C52
o2
v60
v37
C53
o2
v64
v38
C54
o2
v60
v38
C55
o2
v64
v39
C56
o2
v60
v39
C57
o2
v64
v40
C58
o2
v60
v40
C59
o2
v64
v41
C60
o2
v60
v41
C61
o2
v66
v42
C62
o2
v62
v42
C63
o2
v66
v43
C64
o2
v62
v43
C65
o2
v66
v44
C66
o2
v62
v44
C67
o2
v66
v45
C68
o2
v62
v45
C69
o2
v66
v46
C70
o2
v62
v46
C71
o2
v66
v47
C72
o2
v62
v47
C73
o2
v64
v48
C74
o2
v60
v48
C75
o2
v66
v49
C76
o2
v62
v49
C77
o16
o2
v61
v24
C78
o16
o2
v65
v24
C79
o16
o2
v61
v25
C80
o16
o2
v65
v25
C81
o16
o2
v61
v26
C82
o16
o2
v65
v26
C83
o16
o2
v61
v27
C84
o16
o2
v65
v27
C85
o16
o2
v61
v28
C86
o16
o2
v65
v28
C87
o16
o2
v61
v29
C88
o16
o2
v65
v29
C89
o16
o2
v63
v30
C90
o16
o2
v67
v30
C91
o16
o2
v63
v31
C92
o16
o2
v67
v31
C93
o16
o2
v63
v32
C94
o16
o2
v67
v32
C95
o16
o2
v63
v33
C96
o16
o2
v67
v33
C97
o16
o2
v63
v34
C98
o16
o2
v67
v34
C99
o16
o2
v63
v35
C100
o16
o2
v67
v35
C101
o0
o5
v52
n2
o5
v53
n2
C102
o0
o5
v54
n2
o5
v55
n2
C103
o0
o5
v56
n2
o5
v58
n2
C104
o0
o5
v60
n2
o5
v64
n2
C105
o0
o5
v62
n2
o5
v66
n2
C106
n0
C107
n0
C108
n0
C109
n0
C110
n0
C111
n0
C112
n0
C113
n0
C114
n0
C115
n0
C116
n0
C117
n0
C118
n0
C119
n0
C120
n0
C121
n0
C122
n0
C123
n0
C124
n0
C125
n0
C126
n0
C127
n0
C128
n0
C129
n0
C130
n0
C131
n0
C132
n0
C133
n0
C134
n0
C135
n0
C136
n0
C137
n0
C138
n0
C139
n0
C140
n0
C141
n0
C142
n0
C143
n0
C144
n0
C145
n0
C146
n0
C147
n0
C148
n0
C149
n0
C150
n0
C151
n0
C152
n0
C153
n0
C154
n0
C155
n0
C156
n0
C157
n0
C158
n0
C159
n0
C160
n0
C161
n0
C162
n0
C163
n0
C164
n0
C165
n0
C166
n0
C167
n0
C168
n0
C169
n0
C170
n0
C171
n0
O0 0
n0
k157
2
4
6
8
10
12
14
16
18
20
22
24
26
28
30
32
34
36
38
40
42
44
46
48
50
52
54
56
58
60
62
64
66
68
70
72
74
76
78
80
82
84
86
88
90
92
94
96
98
100
114
128
141
154
167
180
194
207
221
234
243
251
260
268
277
285
294
302
303
315
317
329
331
333
335
337
339
341
343
345
347
349
351
353
355
357
359
361
363
365
367
369
371
373
375
382
384
391
393
395
397
399
401
403
405
407
409
411
413
420
422
429
431
433
435
437
439
441
443
445
447
449
451
453
456
459
464
469
474
479
484
489
497
502
507
512
517
522
527
534
539
544
549
554
559
564
572
577
582
587
592
597
602
609
611
613
615
J0 3
50 0
51 0
123 1
J1 5
12 0
58 0
69 1
70 1
126 -1
J2 5
12 0
56 0
71 1
72 1
133 -1
J3 5
13 0
58 0
69 1
73 1
127 -1
J4 5
13 0
56 0
71 1
74 1
134 -1
J5 5
14 0
58 0
69 1
75 1
128 -1
J6 5
14 0
56 0
71 1
76 1
135 -1
J7 5
15 0
58 0
69 1
77 1
129 -1
J8 5
15 0
56 0
71 1
78 1
136 -1
J9 5
16 0
58 0
69 1
79 1
130 -1
J10 5
16 0
56 0
71 1
80 1
137 -1
J11 5
17 0
58 0
69 1
81 1
131 -1
J12 5
17 0
56 0
71 1
82 1
138 -1
J13 5
18 0
58 0
69 1
83 1
140 -1
J14 5
18 0
56 0
71 1
84 1
147 -1
J15 5
19 0
58 0
69 1
85 1
141 -1
J16 5
19 0
56 0
71 1
86 1
148 -1
J17 5
20 0
58 0
69 1
87 1
142 -1
J18 5
20 0
56 0
71 1
88 1
149 -1
J19 5
21 0
58 0
69 1
89 1
143 -1
J20 5
21 0
56 0
71 1
90 1
150 -1
J21 5
22 0
58 0
69 1
91 1
144 -1
J22 5
22 0
56 0
71 1
92 1
151 -1
J23 5
23 0
58 0
69 1
93 1
145 -1
J24 5
23 0
56 0
71 1
94 1
152 -1
J25 3
0 0
57 0
70 1
J26 3
0 0
59 0
72 1
J27 3
1 0
57 0
73 1
J28 3
1 0
59 0
74 1
J29 3
2 0
57 0
75 1
J30 3
2 0
59 0
76 1
J31 3
3 0
57 0
77 1
J32 3
3 0
59 0
78 1
J33 3
4 0
57 0
79 1
J34 3
4 0
59 0
80 1
J35 3
5 0
57 0
81 1
J36 3
5 0
59 0
82 1
J37 3
6 0
57 0
83 1
J38 3
6 0
59 0
84 1
J39 3
7 0
57 0
85 1
J40 3
7 0
59 0
86 1
J41 3
8 0
57 0
87 1
J42 3
8 0
59 0
88 1
J43 3
9 0
57 0
89 1
J44 3
9 0
59 0
90 1
J45 3
10 0
57 0
91 1
J46 3
10 0
59 0
92 1
J47 3
11 0
57 0
93 1
J48 3
11 0
59 0
94 1
J49 5
36 0
64 0
95 1
96 1
126 -1
J50 5
36 0
60 0
97 1
98 1
133 -1
J51 5
37 0
64 0
95 1
99 1
127 -1
J52 5
37 0
60 0
97 1
100 1
134 -1
J53 5
38 0
64 0
95 1
101 1
128 -1
J54 5
38 0
60 0
97 1
102 1
135 -1
J55 5
39 0
64 0
95 1
103 1
129 -1
J56 5
39 0
60 0
97 1
104 1
136 -1
J57 5
40 0
64 0
95 1
105 1
130 -1
J58 5
40 0
60 0
97 1
106 1
137 -1
J59 5
41 0
64 0
95 1
107 1
131 -1
J60 5
41 0
60 0
97 1
108 1
138 -1
J61 5
42 0
66 0
109 1
110 1
140 -1
J62 5
42 0
62 0
111 1
112 1
147 -1
J63 5
43 0
66 0
109 1
113 1
141 -1
J64 5
43 0
62 0
111 1
114 1
148 -1
J65 5
44 0
66 0
109 1
115 1
142 -1
J66 5
44 0
62 0
111 1
116 1
149 -1
J67 5
45 0
66 0
109 1
117 1
143 -1
J68 5
45 0
62 0
111 1
118 1
150 -1
J69 5
46 0
66 0
109 1
119 1
144 -1
J70 5
46 0
62 0
111 1
120 1
151 -1
J71 5
47 0
66 0
109 1
121 1
145 -1
J72 5
47 0
62 0
111 1
122 1
152 -1
J73 5
48 0
64 0
95 1
124 -1
154 1
J74 5
48 0
60 0
97 1
125 -1
155 1
J75 5
49 0
66 0
109 1
124 -1
156 1
J76 5
49 0
62 0
111 1
125 -1
157 1
J77 3
24 0
61 0
96 1
J78 3
24 0
65 0
98 1
J79 3
25 0
61 0
99 1
J80 3
25 0
65 0
100 1
J81 3
26 0
61 0
101 1
J82 3
26 0
65 0
102 1
J83 3
27 0
61 0
103 1
J84 3
27 0
65 0
104 1
J85 3
28 0
61 0
105 1
J86 3
28 0
65 0
106 1
J87 3
29 0
61 0
107 1
J88 3
29 0
65 0
108 1
J89 3
30 0
63 0
110 1
J90 3
30 0
67 0
112 1
J91 3
31 0
63 0
113 1
J92 3
31 0
67 0
114 1
J93 3
32 0
63 0
115 1
J94 3
32 0
67 0
116 1
J95 3
33 0
63 0
117 1
J96 3
33 0
67 0
118 1
J97 3
34 0
63 0
119 1
J98 3
34 0
67 0
120 1
J99 3
35 0
63 0
121 1
J100 3
35 0
67 0
122 1
J101 2
52 0
53 0
J102 2
54 0
55 0
J103 2
56 0
58 0
J104 2
60 0
64 0
J105 2
62 0
66 0
J106 2
68 1
123 -1
J107 2
50 -1
124 1
J108 2
51 -1
125 1
J109 7
126 -0.1666666667
127 -0.1666666667
128 -0.1666666667
129 -0.1666666667
130 -0.1666666667
131 -0.1666666667
132 1
J110 7
133 -0.1666666667
134 -0.1666666667
135 -0.1666666667
136 -0.1666666667
137 -0.1666666667
138 -0.1666666667
139 1
J111 7
140 -0.1666666667
141 -0.1666666667
142 -0.1666666667
143 -0.1666666667
144 -0.1666666667
145 -0.1666666667
146 1
J112 7
147 -0.1666666667
148 -0.1666666667
149 -0.1666666667
150 -0.1666666667
151 -0.1666666667
152 -0.1666666667
153 1
J113 2
50 -1
126 1
J114 2
51 -1
133 1
J115 2
50 -1
127 1
J116 2
51 -1
134 1
J117 2
50 -1
128 1
J118 2
51 -1
135 1
J119 2
50 -1
129 1
J120 2
51 -1
136 1
J121 2
50 -1
130 1
J122 2
51 -1
137 1
J123 2
50 -1
131 1
J124 2
51 -1
138 1
J125 2
50 -1
140 1
J126 2
51 -1
147 1
J127 2
50 -1
141 1
J128 2
51 -1
148 1
J129 2
50 -1
142 1
J130 2
51 -1
149 1
J131 2
50 -1
143 1
J132 2
51 -1
150 1
J133 2
50 -1
144 1
J134 2
51 -1
151 1
J135 2
50 -1
145 1
J136 2
51 -1
152 1
J137 4
52 0.8333333333
53 0.75
126 1
132 -1
J138 4
52 -0.1666666667
53 0.75
127 1
132 -1
J139 4
52 -0.6666666667
53 0.25
128 1
132 -1
J140 4
52 -0.6666666667
53 -0.25
129 1
132 -1
J141 4
52 -0.1666666667
53 -0.75
130 1
132 -1
J142 4
52 0.8333333333
53 -0.75
131 1
132 -1
J143 4
54 0.8333333333
55 0.75
140 1
146 -1
J144 4
54 -0.1666666667
55 0.75
141 1
146 -1
J145 4
54 -0.6666666667
55 0.25
142 1
146 -1
J146 4
54 -0.6666666667
55 -0.25
143 1
146 -1
J147 4
54 -0.1666666667
55 -0.75
144 1
146 -1
J148 4
54 0.8333333333
55 -0.75
145 1
146 -1
J149 4
52 -0.75
53 0.8333333333
133 1
139 -1
J150 4
52 -0.75
53 -0.1666666667
134 1
139 -1
J151 4
52 -0.25
53 -0.6666666667
135 1
139 -1
J152 4
52 0.25
53 -0.6666666667
136 1
139 -1
J153 4
52 0.75
53 -0.1666666667
137 1
139 -1
J154 4
52 0.75
53 0.8333333333
138 1
139 -1
J155 4
54 -0.75
55 0.8333333333
147 1
153 -1
J156 4
54 -0.75
55 -0.1666666667
148 1
153 -1
J157 4
54 -0.25
55 -0.6666666667
149 1
153 -1
J158 4
54 0.25
55 -0.6666666667
150 1
153 -1
J159 4
54 0.75
55 -0.1666666667
151 1
153 -1
J160 4
54 0.75
55 0.8333333333
152 1
153 -1
J161 2
56 -1
57 1
J162 2
58 1
59 1
J163 2
60 -1
61 1
J164 2
62 -1
63 1
J165 2
64 1
65 1
J166 2
66 1
67 1
J167 2
61 1.2
154 1
J168 2
65 1.2
155 1
J169 2
63 1.2
156 1
J170 2
67 1.2
157 1
J171 2
132 1
146 -1
G0 1
68 1
